c colouring generated by benchmark framework
p edge 95 755
v 1 2
v 2 3
v 3 1
v 4 1
v 5 5
v 6 6
v 7 6
v 8 1
v 9 6
v 10 0
v 11 4
v 12 2
v 13 3
v 14 4
v 15 4
v 16 2
v 17 6
v 18 3
v 19 1
v 20 3
v 21 6
v 22 4
v 23 0
v 24 2
v 25 3
v 26 4
v 27 4
v 28 0
v 29 6
v 30 0
v 31 0
v 32 0
v 33 6
v 34 4
v 35 4
v 36 4
v 37 4
v 38 4
v 39 4
v 40 6
v 41 6
v 42 2
v 43 6
v 44 2
v 45 4
v 46 0
v 47 1
v 48 2
v 49 3
v 50 1
v 51 3
v 52 5
v 53 2
v 54 5
v 55 6
v 56 1
v 57 2
v 58 4
v 59 5
v 60 3
v 61 1
v 62 1
v 63 5
v 64 6
v 65 5
v 66 2
v 67 3
v 68 6
v 69 3
v 70 5
v 71 2
v 72 3
v 73 4
v 74 3
v 75 5
v 76 6
v 77 6
v 78 6
v 79 3
v 80 5
v 81 5
v 82 2
v 83 5
v 84 2
v 85 3
v 86 5
v 87 6
v 88 3
v 89 6
v 90 3
v 91 5
v 92 5
v 93 5
v 94 5
v 95 0
